Optimize a model with 10 rows, 10 columns and 20 nonzeros
Coefficient statistics:
  Matrix range     [1e+00, 1e+08]
  Objective range  [2e+01, 3e+01]
  Bounds range     [0e+00, 0e+00]
  RHS range        [1e+08, 1e+09]
Warning: Model contains large matrix coefficients
Warning: Model contains large rhs
         Consider reformulating model or setting NumericFocus parameter
         to avoid numerical issues.
Presolve time: 0.00s
Presolved: 10 rows, 10 columns, 20 nonzeros

Iteration    Objective       Primal Inf.    Dual Inf.      Time
       0    0.0000000e+00   2.197921e+01   0.000000e+00      0s
      10    7.3789174e+02   0.000000e+00   0.000000e+00      0s

Solved in 10 iterations and 0.01 seconds
Optimal objective  7.378917379e+02
Optimize a model with 10 rows, 10 columns and 20 nonzeros
Coefficient statistics:
  Matrix range     [1e+00, 1e+08]
  Objective range  [2e+01, 3e+01]
  Bounds range     [0e+00, 0e+00]
  RHS range        [1e+08, 1e+09]
Warning: Model contains large matrix coefficients
Warning: Model contains large rhs
         Consider reformulating model or setting NumericFocus parameter
         to avoid numerical issues.
Presolve time: 0.00s
Presolved: 10 rows, 10 columns, 20 nonzeros

Iteration    Objective       Primal Inf.    Dual Inf.      Time
       0    0.0000000e+00   2.197921e+01   0.000000e+00      0s
      10    7.3789174e+02   0.000000e+00   0.000000e+00      0s

Solved in 10 iterations and 0.01 seconds
Optimal objective  7.378917379e+02
Optimize a model with 10 rows, 10 columns and 20 nonzeros
Variable types: 0 continuous, 10 integer (0 binary)
Coefficient statistics:
  Matrix range     [1e+00, 1e+08]
  Objective range  [2e+01, 3e+01]
  Bounds range     [0e+00, 0e+00]
  RHS range        [1e+08, 1e+09]
Warning: Model contains large matrix coefficients
Warning: Model contains large rhs
         Consider reformulating model or setting NumericFocus parameter
         to avoid numerical issues.
Found heuristic solution: objective 1190
Presolve removed 8 rows and 8 columns
Presolve time: 0.05s
Presolved: 2 rows, 2 columns, 4 nonzeros
Found heuristic solution: objective 875.0000000
Variable types: 0 continuous, 2 integer (0 binary)

Root relaxation: objective 8.027265e+02, 2 iterations, 0.00 seconds

    Nodes    |    Current Node    |     Objective Bounds      |     Work
 Expl Unexpl |  Obj  Depth IntInf | Incumbent    BestBd   Gap | It/Node Time

     0     0  802.72650    0    2  875.00000  802.72650  8.26%     -    0s
H    0     0                     819.0000000  802.72650  1.99%     -    0s

Explored 0 nodes (2 simplex iterations) in 0.28 seconds
Thread count was 8 (of 8 available processors)

Solution count 2: 819 875 
Pool objective bound 819

Optimal solution found (tolerance 1.00e-04)
Best objective 8.190000000000e+02, best bound 8.190000000000e+02, gap 0.0000%
Optimize a model with 10 rows, 40 columns and 40 nonzeros
Variable types: 0 continuous, 40 integer (0 binary)
Coefficient statistics:
  Matrix range     [6e+07, 1e+08]
  Objective range  [2e+01, 3e+01]
  Bounds range     [0e+00, 0e+00]
  RHS range        [1e+08, 1e+09]
Warning: Model contains large matrix coefficients
Warning: Model contains large rhs
         Consider reformulating model or setting NumericFocus parameter
         to avoid numerical issues.
Found heuristic solution: objective 595
Presolve removed 10 rows and 40 columns
Presolve time: 0.00s
Presolve: All rows and columns removed

Explored 0 nodes (0 simplex iterations) in 0.01 seconds
Thread count was 1 (of 8 available processors)

Solution count 1: 595 
Pool objective bound 595

Optimal solution found (tolerance 1.00e-04)
Best objective 5.950000000000e+02, best bound 5.950000000000e+02, gap 0.0000%
Optimize a model with 10 rows, 40 columns and 80 nonzeros
Variable types: 0 continuous, 40 integer (0 binary)
Coefficient statistics:
  Matrix range     [1e+00, 1e+08]
  Objective range  [2e+01, 3e+01]
  Bounds range     [0e+00, 0e+00]
  RHS range        [1e+08, 1e+09]
Warning: Model contains large matrix coefficients
Warning: Model contains large rhs
         Consider reformulating model or setting NumericFocus parameter
         to avoid numerical issues.
Found heuristic solution: objective 1190
Presolve removed 8 rows and 38 columns
Presolve time: 0.00s
Presolved: 2 rows, 2 columns, 4 nonzeros
Variable types: 0 continuous, 2 integer (0 binary)

Root relaxation: objective 8.027265e+02, 2 iterations, 0.00 seconds

    Nodes    |    Current Node    |     Objective Bounds      |     Work
 Expl Unexpl |  Obj  Depth IntInf | Incumbent    BestBd   Gap | It/Node Time

     0     0  802.72650    0    2 1190.00000  802.72650  32.5%     -    0s
H    0     0                     819.0000000  802.72650  1.99%     -    0s

Explored 0 nodes (2 simplex iterations) in 0.01 seconds
Thread count was 8 (of 8 available processors)

Solution count 2: 819 1190 
Pool objective bound 819

Optimal solution found (tolerance 1.00e-04)
Best objective 8.190000000000e+02, best bound 8.190000000000e+02, gap 0.0000%
Optimize a model with 10 rows, 40 columns and 80 nonzeros
Variable types: 0 continuous, 40 integer (0 binary)
Coefficient statistics:
  Matrix range     [1e+00, 1e+08]
  Objective range  [0e+00, 0e+00]
  Bounds range     [0e+00, 0e+00]
  RHS range        [1e+07, 1e+08]
Warning: Model contains large matrix coefficients
         Consider reformulating model or setting NumericFocus parameter
         to avoid numerical issues.
Found heuristic solution: objective 0

Explored 0 nodes (0 simplex iterations) in 0.00 seconds
Thread count was 1 (of 8 available processors)

Solution count 1: 0 
Pool objective bound 0

Optimal solution found (tolerance 1.00e-04)
Best objective 0.000000000000e+00, best bound 0.000000000000e+00, gap 0.0000%
Optimize a model with 10 rows, 40 columns and 80 nonzeros
Variable types: 0 continuous, 40 integer (0 binary)
Coefficient statistics:
  Matrix range     [1e+00, 1e+08]
  Objective range  [0e+00, 0e+00]
  Bounds range     [0e+00, 0e+00]
  RHS range        [1e+07, 1e+08]
Warning: Model contains large matrix coefficients
         Consider reformulating model or setting NumericFocus parameter
         to avoid numerical issues.
Presolve removed 10 rows and 40 columns
Presolve time: 0.00s
Presolve: All rows and columns removed

Explored 0 nodes (0 simplex iterations) in 0.02 seconds
Thread count was 1 (of 8 available processors)

Solution count 1: 0 
Pool objective bound 0

Optimal solution found (tolerance 1.00e-04)
Best objective 0.000000000000e+00, best bound 0.000000000000e+00, gap 0.0000%
Optimize a model with 10 rows, 40 columns and 80 nonzeros
Variable types: 0 continuous, 40 integer (0 binary)
Coefficient statistics:
  Matrix range     [1e+00, 1e+08]
  Objective range  [0e+00, 0e+00]
  Bounds range     [0e+00, 0e+00]
  RHS range        [1e+08, 1e+09]
Warning: Model contains large matrix coefficients
Warning: Model contains large rhs
         Consider reformulating model or setting NumericFocus parameter
         to avoid numerical issues.
Found heuristic solution: objective 0

Explored 0 nodes (0 simplex iterations) in 0.00 seconds
Thread count was 1 (of 8 available processors)

Solution count 1: 0 
Pool objective bound 0

Optimal solution found (tolerance 1.00e-04)
Best objective 0.000000000000e+00, best bound 0.000000000000e+00, gap 0.0000%
Optimize a model with 10 rows, 10 columns and 20 nonzeros
Variable types: 0 continuous, 10 integer (0 binary)
Coefficient statistics:
  Matrix range     [1e+00, 1e+08]
  Objective range  [0e+00, 0e+00]
  Bounds range     [0e+00, 0e+00]
  RHS range        [1e+08, 1e+09]
Warning: Model contains large matrix coefficients
Warning: Model contains large rhs
         Consider reformulating model or setting NumericFocus parameter
         to avoid numerical issues.
Found heuristic solution: objective 0

Explored 0 nodes (0 simplex iterations) in 0.00 seconds
Thread count was 1 (of 8 available processors)

Solution count 1: 0 
Pool objective bound 0

Optimal solution found (tolerance 1.00e-04)
Best objective 0.000000000000e+00, best bound 0.000000000000e+00, gap 0.0000%
Optimize a model with 10 rows, 10 columns and 20 nonzeros
Variable types: 0 continuous, 10 integer (0 binary)
Coefficient statistics:
  Matrix range     [1e+00, 1e+08]
  Objective range  [0e+00, 0e+00]
  Bounds range     [0e+00, 0e+00]
  RHS range        [1e+08, 1e+09]
Warning: Model contains large matrix coefficients
Warning: Model contains large rhs
         Consider reformulating model or setting NumericFocus parameter
         to avoid numerical issues.
Found heuristic solution: objective 0

Explored 0 nodes (0 simplex iterations) in 0.01 seconds
Thread count was 1 (of 8 available processors)

Solution count 1: 0 
Pool objective bound 0

Optimal solution found (tolerance 1.00e-04)
Best objective 0.000000000000e+00, best bound 0.000000000000e+00, gap 0.0000%
Optimize a model with 10 rows, 10 columns and 20 nonzeros
Variable types: 0 continuous, 10 integer (0 binary)
Coefficient statistics:
  Matrix range     [1e+00, 1e+08]
  Objective range  [0e+00, 0e+00]
  Bounds range     [0e+00, 0e+00]
  RHS range        [1e+08, 1e+09]
Warning: Model contains large matrix coefficients
Warning: Model contains large rhs
         Consider reformulating model or setting NumericFocus parameter
         to avoid numerical issues.
Found heuristic solution: objective 0

Explored 0 nodes (0 simplex iterations) in 0.00 seconds
Thread count was 1 (of 8 available processors)

Solution count 1: 0 
Pool objective bound 0

Optimal solution found (tolerance 1.00e-04)
Best objective 0.000000000000e+00, best bound 0.000000000000e+00, gap 0.0000%
